
Gurobi 7.5.2 (linux64, Python) logging started Thu Mar 28 20:30:41 2019

Academic license - for non-commercial use only

Gurobi 7.5.2 (linux64, Python) logging started Thu Mar 28 20:41:15 2019

Academic license - for non-commercial use only

Gurobi 7.5.2 (linux64, Python) logging started Thu Mar 28 20:42:02 2019

Academic license - for non-commercial use only

Gurobi 7.5.2 (linux64, Python) logging started Thu Mar 28 20:42:22 2019

Academic license - for non-commercial use only

Gurobi 7.5.2 (linux64, Python) logging started Thu Mar 28 20:43:06 2019

Academic license - for non-commercial use only

Gurobi 7.5.2 (linux64, Python) logging started Thu Mar 28 20:43:54 2019

Academic license - for non-commercial use only

Gurobi 7.5.2 (linux64, Python) logging started Thu Mar 28 20:45:22 2019

Academic license - for non-commercial use only

Gurobi 7.5.2 (linux64, Python) logging started Thu Mar 28 20:47:41 2019

Academic license - for non-commercial use only

Gurobi 7.5.2 (linux64, Python) logging started Thu Mar 28 20:48:36 2019

Academic license - for non-commercial use only

Gurobi 7.5.2 (linux64, Python) logging started Thu Mar 28 21:07:36 2019

Academic license - for non-commercial use only

Gurobi 7.5.2 (linux64, Python) logging started Thu Mar 28 21:08:55 2019

Academic license - for non-commercial use only

Gurobi 7.5.2 (linux64, Python) logging started Thu Mar 28 21:09:17 2019

Academic license - for non-commercial use only

Gurobi 7.5.2 (linux64, Python) logging started Thu Mar 28 21:09:35 2019

Academic license - for non-commercial use only

Gurobi 7.5.2 (linux64, Python) logging started Thu Mar 28 21:10:35 2019

Academic license - for non-commercial use only

Gurobi 7.5.2 (linux64, Python) logging started Thu Mar 28 21:10:53 2019

Academic license - for non-commercial use only

Gurobi 7.5.2 (linux64, Python) logging started Thu Mar 28 21:11:54 2019

Academic license - for non-commercial use only

Gurobi 7.5.2 (linux64, Python) logging started Thu Mar 28 21:12:05 2019

Academic license - for non-commercial use only

Gurobi 7.5.2 (linux64, Python) logging started Thu Mar 28 21:13:43 2019

Academic license - for non-commercial use only

Gurobi 7.5.2 (linux64, Python) logging started Thu Mar 28 21:14:07 2019

Academic license - for non-commercial use only

Gurobi 7.5.2 (linux64, Python) logging started Thu Mar 28 21:19:33 2019

Academic license - for non-commercial use only

Gurobi 7.5.2 (linux64, Python) logging started Thu Mar 28 21:20:21 2019

Academic license - for non-commercial use only

Gurobi 7.5.2 (linux64, Python) logging started Thu Mar 28 21:21:55 2019

Academic license - for non-commercial use only

Gurobi 7.5.2 (linux64, Python) logging started Thu Mar 28 21:23:22 2019

Academic license - for non-commercial use only

Gurobi 7.5.2 (linux64, Python) logging started Thu Mar 28 21:24:34 2019

Academic license - for non-commercial use only

Gurobi 7.5.2 (linux64, Python) logging started Thu Mar 28 21:29:57 2019

Academic license - for non-commercial use only

Gurobi 7.5.2 (linux64, Python) logging started Thu Mar 28 21:37:33 2019

Academic license - for non-commercial use only

Gurobi 7.5.2 (linux64, Python) logging started Thu Mar 28 21:39:14 2019

Academic license - for non-commercial use only

Gurobi 7.5.2 (linux64, Python) logging started Thu Mar 28 21:41:52 2019

Academic license - for non-commercial use only

Gurobi 7.5.2 (linux64, Python) logging started Thu Mar 28 22:20:26 2019

Academic license - for non-commercial use only

Gurobi 7.5.2 (linux64, Python) logging started Thu Mar 28 22:21:16 2019

Academic license - for non-commercial use only

Gurobi 7.5.2 (linux64, Python) logging started Thu Mar 28 22:22:53 2019

Academic license - for non-commercial use only

Gurobi 7.5.2 (linux64, Python) logging started Thu Mar 28 22:26:18 2019

Academic license - for non-commercial use only

Gurobi 7.5.2 (linux64, Python) logging started Thu Mar 28 22:27:40 2019

Academic license - for non-commercial use only

Gurobi 7.5.2 (linux64, Python) logging started Thu Mar 28 22:28:00 2019

Academic license - for non-commercial use only

Gurobi 7.5.2 (linux64, Python) logging started Thu Mar 28 22:29:13 2019

Academic license - for non-commercial use only

Gurobi 7.5.2 (linux64, Python) logging started Thu Mar 28 22:29:43 2019

Academic license - for non-commercial use only

Gurobi 7.5.2 (linux64, Python) logging started Thu Mar 28 22:30:51 2019

Academic license - for non-commercial use only

Gurobi 7.5.2 (linux64, Python) logging started Thu Mar 28 22:31:02 2019

Academic license - for non-commercial use only

Gurobi 7.5.2 (linux64, Python) logging started Thu Mar 28 22:32:04 2019

Academic license - for non-commercial use only

Gurobi 7.5.2 (linux64, Python) logging started Fri Mar 29 02:14:51 2019

Academic license - for non-commercial use only

Gurobi 7.5.2 (linux64, Python) logging started Fri Mar 29 02:17:12 2019

Academic license - for non-commercial use only
